NAME : tsp_58_sol.txt
COMMENT : OR-Tools Guided Local Search
TYPE : TOUR
DIMENSION : 50
COST : 5805
STATUS : ROUTING_SUCCESS
GAP : 0.00% (Reference Solution)
TOUR_SECTION
1
2
34
6
21
38
12
18
9
29
32
17
23
45
46
15
39
36
41
22
37
26
47
44
27
24
13
10
8
7
28
48
30
33
11
40
43
4
25
5
3
14
50
42
19
49
35
16
31
20
-1
